portaJava/src/knapsack.lp
\ENCODING=ISO-8859-1
\Problem name: ilog.cplex

Maximize
 obj: x1 + 5 x2 + 3 x3 + 5 x4 + 2 x5 + 3 x6
Subject To
 c1: x1 + 3 x2 + 2 x3 + 4 x4 + 6 x5 + 4 x6 <= 12
Bounds
 0 <= x1 <= 1
 0 <= x2 <= 1
 0 <= x3 <= 1
 0 <= x4 <= 1
 0 <= x5 <= 1
 0 <= x6 <= 1
End
