portaJava/src/knapsack.txt
n = 5
K = 6
w = 1 2 3 4 5
p = 2 4 5 7 6
